2 30
275 283 
0 9 18 28 36 76 98 2
1 80 86 19 21 50 36 1
2 31 32 8 3 81 50 2
3 103 93 33 40 59 30 1
4 31 22 56 65 22 94 1
5 87 80 34 26 68 23 2
6 72 63 93 90 73 49 1
7 106 98 44 36 67 19 1
8 1 7 75 74 6 89 2
9 82 72 33 27 92 54 2
10 14 6 42 52 68 10 1
11 14 9 20 20 24 8 1
12 26 22 83 73 23 30 1
13 1 6 51 53 30 85 2
14 33 35 63 61 19 38 1
15 98 91 22 13 21 100 2
16 22 27 7 14 85 5 1
17 102 98 94 93 4 22 1
18 27 35 56 58 21 3 1
19 51 56 32 23 85 77 2
20 69 71 82 78 5 58 1
21 31 30 88 96 36 60 2
22 33 30 75 81 44 12 1
23 37 45 17 27 60 1 2
24 95 99 20 17 71 19 1
25 23 18 36 33 63 34 1
26 1 4 45 47 84 16 2
27 82 78 8 16 14 55 2
28 36 28 59 58 8 48 1
29 14 17 83 88 100 75 1
